94 13 
21 58 
63 40 
45 81 
94 61 
24 51 
32 54 
89 71 
18 98 
11 50 
60 8 
55 76 
65 20 
48 13 
47 89 
45 93 
54 66 
51 18 
59 48 
51 53 
62 75 
4 94 
82 46 
17 0 
44 81 
2 4 
89 57 
80 6 
29 28 
71 28 
70 16 
22 24 
35 25 
94 94 
74 46 
47 88 
21 4 
34 55 
50 52 
55 46 
85 9 
50 74 
66 83 
32 48 
63 4 
76 85 
20 98 
62 7 
24 56 
1 50 
